p tw 30 45
1 25
1 27
1 30
2 17
2 23
2 26
3 6
3 14
3 20
4 7
4 26
4 28
5 7
5 27
5 30
6 8
6 10
7 30
8 21
8 25
9 10
9 16
9 17
10 16
11 13
11 18
11 21
12 18
12 22
12 26
13 16
13 27
14 28
14 29
15 19
15 20
15 22
17 25
18 19
19 28
20 29
21 24
22 24
23 24
23 29
